p cnf 7230 16
-1416 1604 -1609 0
1416 -1605 0
-1605 1609 0
-148 -1426 1603 0
1426 -1603 0
-1604 1605 0
-1607 1609 0
1608 -1609 0
1606 -1608 0
-1300 1607 0
1300 -1606 0
-153 -1432 1611 0
1432 -1611 0
153 -1611 0
-1602 1603 0
1602 -1603 0
